Name: Ing0405-1
Courses: 99
Rooms: 17
Days: 5
Periods_per_day: 5
Curricula: 70
Min_Max_Daily_Lectures: 2 4
UnavailabilityConstraints: 548
RoomConstraints: 129

COURSES:
c0006 t000 3 3 129 0
c0011 t001 3 3 18 0
c0018 t002 3 3 51 0
c0026 t003 3 3 31 0
c0027 t004 3 3 23 0
c0046 t005 3 3 181 0
c0050 t006 3 2 66 1
c0051 t007 3 3 118 0
c0059 t008 3 3 118 0
c0064 t009 3 3 66 0
c0073 t010 3 3 56 0
c0080 t011 3 3 13 0
c0085 t012 3 3 52 0
c0091 t012 3 3 11 0
c0097 t013 3 3 106 0
c0099 t014 3 3 82 0
c0101 t015 3 3 106 0
c0105 t016 3 3 154 0
c0109 t017 3 3 106 0
c0128 t018 3 3 150 0
c0137 t019 3 2 150 1
c0142 t020 3 2 150 1
c0143 t021 3 3 150 0
c0154 t022 3 3 150 0
c0180 t000 3 3 100 0
c0184 t023 3 3 125 0
c0185 t024 3 3 125 0
c0189 t025 3 3 100 0
c0199 t026 3 3 100 0
c0200 t027 3 3 100 0
c0202 t028 3 3 120 0
c0212 t029 3 3 129 0
c0216 t030 4 2 129 1
c0220 t031 3 3 71 0
c0228 t032 3 3 90 0
c0231 t033 3 3 56 0
c0243 t030 4 2 45 0
c0247 t034 3 3 31 0
c0823 t035 5 4 2 1
c0830 t036 3 3 15 0
c0836 t037 3 3 40 0
c0881 t038 3 3 140 0
c0896 t039 3 2 150 0
c0898 t040 3 2 10 0
c0935 t041 5 4 74 0
c0949 t042 7 1 60 1
c0951 t043 7 1 30 1
c0957 t044 7 1 50 1
c0959 t045 7 1 50 1
c0961 t046 7 1 50 1
c0965 t047 7 1 50 1
c0261 t048 3 3 111 0
c0281 t049 3 3 65 0
c0417 t050 3 3 15 0
c0422 t031 3 3 7 0
c0427 t051 3 3 28 0
c0429 t052 3 3 70 0
c0433 t019 3 2 15 0
c0439 t053 3 3 30 0
c0440 t054 3 3 15 0
c0442 t055 3 3 15 0
c0446 t056 3 3 1 0
c0450 t023 3 3 50 0
c0452 t057 3 3 30 0
c0462 t058 3 3 18 0
c0463 t059 3 3 18 0
c0474 t060 3 3 61 0
c0481 t061 3 3 10 0
c0484 t062 3 3 30 0
c0485 t063 3 3 30 0
c0489 t064 3 3 11 0
c0495 t065 3 3 16 0
c0513 t066 3 3 50 0
c0516 t067 3 3 30 0
c0519 t068 5 5 15 0
c1009 t064 3 3 98 0
c1013 t069 3 3 123 0
c1024 t070 5 5 140 0
c1027 t071 5 4 90 0
c1031 t072 5 4 130 0
c1033 t022 5 4 100 0
c1041 t034 3 3 140 0
c1042 t050 3 3 140 0
c0524 t013 3 2 15 1
c0533 t073 3 3 6 0
c0536 t074 3 3 5 0
c0600 t048 3 3 30 0
c0718 t075 3 3 1 0
c0724 t066 3 3 50 0
c0767 t019 3 2 60 1
c0793 t004 3 3 5 0
c0803 t017 3 3 9 0
c0806 t076 3 3 1 0
c0816 t077 3 3 4 0
c0820 t077 3 3 5 0
c1057 t017 3 3 5 0
c1020 t078 3 3 23 0
c1058 t079 3 3 66 0
c0821 t076 5 4 2 1

ROOMS:
r25 40 1
r36 42 1
r37 42 1
r38 48 1
r31b 25 1
r27 80 1
r51 100 1
rB 216 0
rD 216 0
rF 216 0
rG 216 2
rA 312 2
rL 336 2
r50 50 1
r52 80 1
rDS1 90 3
rDS2 90 3

CURRICULA:
q000 1 c1033 
q001 4 c0046 c0097 c0101 c0109 
q002 3 c0099 c0105 c0935 
q003 1 c1024 
q004 3 c0006 c0216 c0212 
q005 4 c0006 c0216 c0212 c0085 
q006 4 c0006 c0216 c0212 c0427 
q007 5 c0011 c0018 c0026 c0027 c1020 
q008 5 c0231 c0220 c0427 c0080 c0091 
q009 1 c1027 
q010 4 c0051 c0059 c1009 c1013 
q011 4 c0050 c0064 c1058 c0046 
q012 4 c0050 c0064 c0073 c1058 
q013 4 c0050 c0064 c0261 c1058 
q015 4 c0212 c0006 c0216 c0228 
q016 4 c0220 c0231 c0767 c0085 
q017 4 c0220 c0243 c0247 c0767 
q018 1 c1031 
q019 4 c0180 c0189 c0199 c0200 
q020 4 c0184 c0185 c0105 c0202 
q021 4 c0184 c0185 c0105 c0018 
q022 4 c0184 c0185 c0105 c0429 
q023 3 c0154 c0896 c0961 
q024 3 c0154 c0896 c0957 
q025 3 c0154 c0896 c0959 
q026 4 c0128 c0142 c0881 c0951 
q027 4 c0128 c0142 c0881 c0965 
q028 3 c0128 c0142 c0898 
q029 4 c0128 c0142 c0881 c0949 
q030 4 c0137 c0143 c1041 c1042 
q031 2 c0137 c0143 
q034 3 c0046 c0051 c0059 
q035 4 c0184 c0185 c0261 c0202 
q036 4 c0184 c0185 c0261 c0474 
q037 4 c0184 c0185 c0261 c0281 
q038 5 c0450 c1009 c0600 c0202 c0474 
q039 5 c0450 c1009 c0600 c0202 c0281 
q040 5 c0450 c0452 c0429 c0261 c0202 
q041 5 c0450 c0452 c0018 c0261 c0202 
q042 4 c0462 c0463 c0073 c0495 
q043 4 c0462 c0463 c0489 c0474 
q044 3 c0462 c0463 c0099 
q045 5 c0462 c0463 c0018 c0803 c0026 
q046 4 c0439 c0836 c0417 c0243 
q047 6 c0433 c0836 c0231 c0439 c0440 c0442 
q048 3 c0422 c0816 c0247 
q049 3 c0422 c0816 c0427 
q050 3 c0422 c0816 c0429 
q051 4 c0422 c0429 c0085 c0446 
q052 4 c0422 c0429 c0085 c0816 
q053 4 c0422 c0429 c0085 c0718 
q054 4 c0422 c0429 c0085 c0427 
q055 5 c0474 c0281 c0073 c0261 c1013 
q056 5 c0474 c0281 c0261 c0495 c1013 
q057 4 c0474 c0281 c0073 c1013 
q058 3 c0484 c0485 c0489 
q059 4 c0484 c0485 c0481 c0600 
q060 3 c0484 c0485 c0524 
q061 3 c0513 c0724 c0516 
q062 3 c0513 c0724 c0429 
q063 2 c0519 c0524 
q064 3 c0519 c0533 c1057 
q065 2 c0519 c0536 
q066 5 c0793 c0830 c0026 c0027 c1020 
q067 5 c0816 c0836 c0427 c0820 c0830 
q068 3 c0836 c0830 c0427 
q069 3 c0836 c0830 c0820 
q070 4 c0803 c0533 c0806 c0080 
q071 3 c0821 c0823 c0080 
q072 2 c0821 c0823 

UNAVAILABILITY_CONSTRAINTS:
c0006 0 0 
c0006 1 0 
c0006 2 0 
c0006 3 0 
c0006 4 0 
c0006 4 4 
c0011 1 0 
c0011 1 1 
c0011 1 2 
c0011 1 3 
c0011 1 4 
c0011 2 2 
c0011 3 2 
c0011 4 2 
c0018 0 0 
c0018 0 1 
c0018 0 2 
c0018 0 3 
c0018 0 4 
c0018 4 2 
c0018 4 3 
c0018 4 4 
c0026 0 2 
c0026 1 2 
c0026 2 2 
c0026 3 2 
c0026 4 2 
c0027 0 0 
c0027 0 1 
c0027 0 2 
c0027 3 0 
c0027 3 1 
c0027 3 2 
c0027 3 3 
c0027 3 4 
c0027 4 0 
c0027 4 1 
c0027 4 2 
c0027 4 3 
c0027 4 4 
c0050 0 0 
c0050 0 1 
c0050 0 2 
c0050 0 3 
c0050 0 4 
c0050 1 0 
c0050 1 1 
c0050 1 2 
c0050 1 3 
c0050 1 4 
c0050 2 0 
c0050 2 1 
c0050 2 2 
c0050 2 3 
c0050 2 4 
c0050 3 0 
c0050 3 1 
c0050 3 2 
c0051 1 2 
c0051 1 3 
c0051 1 4 
c0051 3 2 
c0051 3 3 
c0051 3 4 
c0051 4 3 
c0051 4 4 
c0059 0 0 
c0059 1 0 
c0059 2 0 
c0059 3 0 
c0059 3 1 
c0059 3 2 
c0059 3 3 
c0059 3 4 
c0064 0 0 
c0064 0 1 
c0064 0 2 
c0064 0 3 
c0064 0 4 
c0064 4 1 
c0064 4 2 
c0073 0 0 
c0073 0 1 
c0073 0 2 
c0073 0 3 
c0073 0 4 
c0073 4 0 
c0073 4 1 
c0073 4 2 
c0073 4 3 
c0073 4 4 
c0080 0 0 
c0080 0 1 
c0080 0 2 
c0080 0 3 
c0080 0 4 
c0080 2 2 
c0080 2 3 
c0080 2 4 
c0097 0 0 
c0097 0 1 
c0097 0 2 
c0097 0 3 
c0097 0 4 
c0097 4 0 
c0097 4 1 
c0097 4 2 
c0097 4 3 
c0097 4 4 
c0099 1 0 
c0099 1 1 
c0099 1 2 
c0099 1 3 
c0099 1 4 
c0099 2 3 
c0099 3 3 
c0099 3 4 
c0101 0 0 
c0101 0 1 
c0101 0 2 
c0101 0 3 
c0101 0 4 
c0101 4 0 
c0101 4 1 
c0101 4 2 
c0101 4 3 
c0101 4 4 
c0105 0 0 
c0105 0 1 
c0105 0 2 
c0105 3 3 
c0105 3 4 
c0105 4 0 
c0105 4 1 
c0105 4 2 
c0105 4 3 
c0105 4 4 
c0109 0 2 
c0109 1 2 
c0109 2 2 
c0109 3 2 
c0109 4 2 
c0128 0 2 
c0128 0 4 
c0128 1 2 
c0128 1 4 
c0128 2 2 
c0128 3 2 
c0128 3 4 
c0128 4 2 
c0137 0 2 
c0137 1 2 
c0137 2 2 
c0137 3 2 
c0137 4 0 
c0137 4 1 
c0137 4 2 
c0137 4 3 
c0137 4 4 
c0142 0 0 
c0142 0 1 
c0142 0 2 
c0142 0 3 
c0142 0 4 
c0142 1 0 
c0142 1 1 
c0142 1 2 
c0142 1 3 
c0142 1 4 
c0142 2 0 
c0142 2 1 
c0142 2 2 
c0142 2 3 
c0142 2 4 
c0154 0 2 
c0154 0 3 
c0154 0 4 
c0154 1 2 
c0154 1 3 
c0154 1 4 
c0154 4 4 
c0180 0 0 
c0180 1 0 
c0180 2 0 
c0180 3 0 
c0180 4 0 
c0180 4 4 
c0184 3 0 
c0184 3 1 
c0184 3 2 
c0184 3 3 
c0184 3 4 
c0184 4 0 
c0184 4 1 
c0184 4 2 
c0184 4 3 
c0184 4 4 
c0185 3 2 
c0185 3 3 
c0185 4 0 
c0185 4 1 
c0185 4 2 
c0185 4 3 
c0185 4 4 
c0199 3 2 
c0199 3 3 
c0199 3 4 
c0199 4 0 
c0199 4 1 
c0199 4 2 
c0199 4 3 
c0199 4 4 
c0212 0 2 
c0212 1 2 
c0212 2 2 
c0212 3 2 
c0212 4 2 
c0228 0 0 
c0228 0 4 
c0228 1 0 
c0228 2 0 
c0228 3 0 
c0228 3 4 
c0228 4 0 
c0228 4 4 
c0231 0 0 
c0231 0 2 
c0231 1 2 
c0231 2 0 
c0231 2 2 
c0231 3 2 
c0231 4 0 
c0231 4 2 
c0830 0 0 
c0830 0 1 
c0830 0 2 
c0830 0 3 
c0830 0 4 
c0830 1 0 
c0830 2 0 
c0830 4 0 
c0836 0 0 
c0836 0 1 
c0836 0 2 
c0836 0 3 
c0836 0 4 
c0836 1 0 
c0836 1 1 
c0836 1 2 
c0881 0 0 
c0881 0 1 
c0881 0 2 
c0881 0 3 
c0881 0 4 
c0881 1 2 
c0881 1 4 
c0881 2 2 
c0881 4 2 
c0896 2 0 
c0896 2 1 
c0896 2 2 
c0896 2 3 
c0896 2 4 
c0896 4 0 
c0896 4 1 
c0896 4 2 
c0896 4 3 
c0896 4 4 
c0898 1 4 
c0898 4 4 
c0935 4 0 
c0935 4 1 
c0935 4 2 
c0935 4 3 
c0935 4 4 
c0261 2 2 
c0261 2 3 
c0261 2 4 
c0261 3 0 
c0261 3 1 
c0261 3 2 
c0261 3 3 
c0261 3 4 
c0281 0 4 
c0281 1 4 
c0281 2 4 
c0281 3 4 
c0281 4 4 
c0417 0 2 
c0417 0 3 
c0417 1 2 
c0417 1 3 
c0417 2 2 
c0417 2 3 
c0417 3 2 
c0417 4 2 
c0427 1 4 
c0427 2 4 
c0427 3 4 
c0427 4 0 
c0427 4 1 
c0427 4 2 
c0427 4 3 
c0427 4 4 
c0433 0 2 
c0433 1 2 
c0433 2 2 
c0433 3 2 
c0433 4 0 
c0433 4 1 
c0433 4 2 
c0433 4 3 
c0433 4 4 
c0440 0 0 
c0440 0 1 
c0440 0 2 
c0440 0 3 
c0440 0 4 
c0440 1 0 
c0440 1 1 
c0440 1 2 
c0442 0 0 
c0442 0 1 
c0442 0 2 
c0442 0 3 
c0442 0 4 
c0442 4 2 
c0442 4 3 
c0442 4 4 
c0450 3 0 
c0450 3 1 
c0450 3 2 
c0450 3 3 
c0450 3 4 
c0450 4 0 
c0450 4 1 
c0450 4 2 
c0450 4 3 
c0450 4 4 
c0474 0 0 
c0474 0 1 
c0474 0 2 
c0474 0 3 
c0474 0 4 
c0474 4 2 
c0474 4 3 
c0474 4 4 
c0481 0 0 
c0481 0 1 
c0481 0 2 
c0481 0 3 
c0481 0 4 
c0481 1 0 
c0481 4 0 
c0481 4 1 
c0481 4 2 
c0481 4 3 
c0481 4 4 
c0484 0 0 
c0484 0 1 
c0484 0 2 
c0484 0 3 
c0484 0 4 
c0484 1 0 
c0484 1 1 
c0484 1 2 
c0484 1 3 
c0484 1 4 
c0485 0 0 
c0485 0 1 
c0485 0 2 
c0485 0 3 
c0485 4 1 
c0485 4 2 
c0485 4 3 
c0485 4 4 
c0489 0 2 
c0489 0 3 
c0489 0 4 
c0489 2 2 
c0489 2 3 
c0489 2 4 
c0513 0 0 
c0513 0 1 
c0513 0 2 
c0513 1 0 
c0513 2 0 
c0513 3 0 
c0513 4 0 
c0513 4 4 
c0519 0 2 
c0519 1 2 
c0519 2 2 
c0519 3 2 
c0519 3 4 
c0519 4 2 
c0519 4 3 
c0519 4 4 
c1009 0 2 
c1009 0 3 
c1009 0 4 
c1009 2 2 
c1009 2 3 
c1009 2 4 
c1013 0 1 
c1013 4 1 
c1024 0 2 
c1024 1 2 
c1024 2 2 
c1024 3 2 
c1024 4 2 
c1031 4 2 
c1031 4 3 
c1031 4 4 
c1033 0 1 
c1033 0 2 
c1033 0 3 
c1033 0 4 
c1033 1 1 
c1033 1 2 
c1033 1 3 
c1033 1 4 
c1033 2 1 
c1033 2 2 
c1033 2 3 
c1033 2 4 
c1033 3 1 
c1033 3 2 
c1033 3 3 
c1033 3 4 
c1033 4 1 
c1033 4 2 
c1033 4 3 
c1033 4 4 
c1042 0 2 
c1042 0 3 
c1042 1 2 
c1042 1 3 
c1042 2 2 
c1042 2 3 
c1042 3 2 
c1042 4 2 
c0524 0 0 
c0524 0 1 
c0524 0 2 
c0524 0 3 
c0524 0 4 
c0524 4 0 
c0524 4 1 
c0524 4 2 
c0524 4 3 
c0524 4 4 
c0600 2 2 
c0600 2 3 
c0600 2 4 
c0600 3 0 
c0600 3 1 
c0600 3 2 
c0600 3 3 
c0600 3 4 
c0724 0 0 
c0724 0 1 
c0724 0 2 
c0724 1 0 
c0724 2 0 
c0724 3 0 
c0724 4 0 
c0724 4 4 
c0767 0 2 
c0767 1 2 
c0767 2 2 
c0767 3 2 
c0767 4 0 
c0767 4 1 
c0767 4 2 
c0767 4 3 
c0767 4 4 
c0793 0 0 
c0793 0 1 
c0793 0 2 
c0793 3 0 
c0793 3 1 
c0793 3 2 
c0793 3 3 
c0793 3 4 
c0793 4 0 
c0793 4 1 
c0793 4 2 
c0793 4 3 
c0793 4 4 
c0803 0 2 
c0803 1 2 
c0803 2 2 
c0803 3 2 
c0803 4 2 
c0806 0 0 
c0806 0 1 
c0806 0 2 
c0806 1 0 
c0806 1 1 
c0806 1 2 
c0806 2 0 
c0806 2 1 
c0806 2 2 
c0806 3 0 
c0806 3 1 
c0806 3 2 
c0806 4 0 
c0806 4 1 
c0806 4 2 
c1020 0 0 
c1020 0 1 
c1020 0 2 
c1020 0 3 
c1020 0 4 
c1020 1 0 
c1020 4 0 
c1020 4 1 
c1020 4 2 
c1020 4 3 
c1020 4 4 
c1058 0 0 
c1058 0 1 
c1058 0 2 
c1058 0 3 
c1058 0 4 
c1058 4 0 
c1058 4 1 
c1058 4 2 
c1058 4 3 
c1058 4 4 
c0821 0 0 
c0821 0 1 
c0821 0 2 
c0821 1 0 
c0821 1 1 
c0821 1 2 
c0821 1 4 
c0821 2 0 
c0821 2 1 
c0821 2 2 
c0821 2 4 
c0821 3 0 
c0821 3 1 
c0821 3 2 
c0821 4 0 
c0821 4 1 
c0821 4 2 

ROOM_CONSTRAINTS:
c0006 r37
c0006 rG
c0006 r52
c0011 r25
c0011 r27
c0011 r52
c0018 r52
c0026 r50
c0046 r38
c0046 r51
c0050 r38
c0051 r37
c0073 r37
c0073 r27
c0073 r51
c0073 rDS1
c0080 rB
c0080 rA
c0085 r52
c0085 rDS2
c0097 r52
c0099 rG
c0099 rA
c0099 rL
c0101 rDS2
c0105 rG
c0109 rF
c0137 r51
c0142 r52
c0180 r51
c0180 rDS1
c0184 r36
c0184 r51
c0184 rG
c0184 rDS1
c0184 rDS2
c0185 rB
c0199 rD
c0199 r50
c0200 rD
c0202 r38
c0212 rG
c0212 rDS2
c0216 rG
c0216 rDS1
c0228 rD
c0231 rB
c0243 r38
c0243 rD
c0243 rA
c0243 r50
c0830 r25
c0836 r27
c0881 r51
c0881 rDS2
c0896 r37
c0896 rF
c0896 rDS1
c0896 rDS2
c0898 r51
c0898 rL
c0935 rA
c0935 r52
c0949 r50
c0951 r50
c0957 rG
c0961 r37
c0961 r51
c0965 rB
c0965 rL
c0417 r31b
c0427 rF
c0439 r25
c0439 rB
c0439 r52
c0446 r31b
c0446 r50
c0450 rD
c0452 r36
c0452 r51
c0452 rL
c0462 r31b
c0462 r50
c0463 rB
c0481 r38
c0485 r27
c0489 rB
c0489 rDS2
c0495 rB
c0495 rA
c0513 r27
c0513 rF
c0513 rDS1
c0516 rG
c0516 rL
c0519 rD
c1009 rG
c1024 r50
c1031 rDS2
c1033 rD
c1042 r31b
c0524 rG
c0524 r50
c0533 r36
c0533 r50
c0536 r31b
c0536 rB
c0536 rG
c0600 rF
c0600 rDS1
c0718 rD
c0718 rF
c0718 r52
c0724 r37
c0767 r36
c0793 r27
c0803 rL
c0806 rB
c0820 r37
c0820 r38
c0820 rDS1
c1057 r27
c1058 rF
c1058 rG
c1058 rA
c0821 r36
c0821 r51
c0821 rD
c0821 rA

END.
